2
100 100 
51
50 26 30
26 49 72
49 43 4
19 48 88
33 48 54
47 43 64
47 34 90
46 40 26
46 21 94
45 25 28
27 45 72
30 44 49
44 39 54
28 44 19
43 31 28
36 43 61
43 28 84
29 42 23
42 39 67
26 42 53
42 42 54
41 32 16
40 28 9
40 37 54
40 31 77
39 23 80
33 39 68
39 22 39
28 38 25
10 37 74
37 27 14
36 35 53
36 27 35
36 28 100
34 36 39
32 35 82
26 35 62
27 33 80
28 33 94
31 33 4
32 31 100
17 31 93
31 30 95
28 30 8
29 24 7
28 11 90
28 28 84
27 25 10
21 26 13
17 21 63
11 18 3
